50
9183

294 137
559 243
556 340
656 886
583 581
294 683
64 359
180 628
397 572
411 825
653 455
703 606
567 199
9 742
562 267
94 32
708 427
458 931
860 18
581 909
828 114
859 407
265 912
673 270
385 550
191 831
156 562
514 988
941 923
549 677
912 224
829 775
527 595
429 697
902 937
671 187
138 4
204 510
735 589
431 692
727 457
872 338
182 3
225 482
306 879
845 565
458 570
157 956
689 591
465 28
